0 0 2 0
1 0 1 0
2 0 2 1
2 1 3 6
2 2 5 10
0 1 0 1
3 0 1 8
5 0 1 13
5 1 3 16
1 1 2 8
0 2 1 16
1 2 4 13
3 1 0 13
5 2 5 19
4 0 2 13
3 2 2 22
1 3 5 28
4 1 1 22
2 3 0 18
0 3 3 22
5 3 0 28
2 4 1 27
3 3 3 29
4 2 4 25
2 5 4 30
3 4 4 37
4 3 5 38
0 4 5 42
1 4 0 38
5 4 4 45
1 5 3 48
3 5 5 45
0 5 4 49
4 4 0 48
4 5 3 52
5 5 2 49
